************************************************************************
file with basedata            : n/a
initial value random generator: n/a
************************************************************************
projects                      :  1
jobs (incl. supersource/sink ):  122
horizon                       :  585
RESOURCES
  - renewable                 :  4   R
  - nonrenewable              :  0   N
  - doubly constrained        :  0   D
************************************************************************
PROJECT INFORMATION:
pronr.  #jobs rel.date duedate tardcost  MPM-Time
    1    120      0       75       81       75
************************************************************************
PRECEDENCE RELATIONS:
jobnr.    #modes  #successors   successors
   1        1          3           2   3   4
   2        1          3           5   7  22
   3        1          3          31  41  78
   4        1          3           6   8  20
   5        1          3          12  13  26
   6        1          3           9  19  53
   7        1          3          10  11  18
   8        1          1          15
   9        1          3          14  27  86
  10        1          1          17
  11        1          2          45  49
  12        1          2          16  94
  13        1          2          38 106
  14        1          3          24  25  98
  15        1          1          23
  16        1          3          21  51  71
  17        1          1          43
  18        1          1          74
  19        1          3          36  61  73
  20        1          2          54  90
  21        1          3          67  68  95
  22        1          3          34  37  42
  23        1          3          30  60  68
  24        1          3          29  35  47
  25        1          3          28  32  46
  26        1          1          98
  27        1          3          33  39  48
  28        1          1          63
  29        1          1          80
  30        1          2          52 101
  31        1          1          45
  32        1          1          44
  33        1          2          40  55
  34        1          2          50  64
  35        1          1         114
  36        1          1          69
  37        1          1          55
  38        1          1          74
  39        1          2          42  93
  40        1          2          63 114
  41        1          2          56 116
  42        1          2          44 108
  43        1          2          96  97
  44        1          3          57  66  67
  45        1          1          82
  46        1          1         111
  47        1          2          62  65
  48        1          1         102
  49        1          3          85  87 111
  50        1          1          58
  51        1          1         120
  52        1          1         118
  53        1          1          63
  54        1          1          83
  55        1          1          69
  56        1          1          93
  57        1          1          89
  58        1          2          59  72
  59        1          1          87
  60        1          1          79
  61        1          1          95
  62        1          3          76  95 103
  63        1          1          75
  64        1          1         110
  65        1          2          91 100
  66        1          1         116
  67        1          2          70 121
  68        1          1          87
  69        1          1          99
  70        1          2         107 113
  71        1          1          91
  72        1          2          81 103
  73        1          1         104
  74        1          1         118
  75        1          1          77
  76        1          1         118
  77        1          2          81 115
  78        1          1          91
  79        1          1         111
  80        1          1          84
  81        1          1         100
  82        1          1         112
  83        1          1         109
  84        1          1          96
  85        1          1          88
  86        1          1          92
  87        1          1          88
  88        1          1         115
  89        1          2          96 103
  90        1          1          99
  91        1          1         105
  92        1          1          99
  93        1          1          98
  94        1          1         109
  95        1          1         100
  96        1          1         109
  97        1          1         113
  98        1          1         115
  99        1          1         106
 100        1          1         105
 101        1          1         105
 102        1          1         107
 103        1          3         106 110 113
 104        1          1         107
 105        1          1         116
 106        1          1         114
 107        1          1         110
 108        1          1         112
 109        1          1         119
 110        1          1         117
 111        1          1         121
 112        1          1         117
 113        1          1         120
 114        1          1         117
 115        1          1         120
 116        1          1         119
 117        1          1         119
 118        1          1         121
 119        1          1         122
 120        1          1         122
 121        1          1         122
 122        1          0        
************************************************************************
REQUESTS/DURATIONS:
jobnr. mode duration  R 1  R 2  R 3  R 4
------------------------------------------------------------------------
  1      1     0    
  2      1     1       6
                       1
                       6
                       4
  3      1     5      10  10  10  10  10
                       0   0   0   0   0
                       0   0   0   0   0
                       4   4   4   4   4
  4      1     5       1   2   1   2   2
                       3   5   3   5   5
                       4   7   4   7   7
                       0   0   0   0   0
  5      1     6       0   0   0   0   0   0
                       9   9   9   9   9   9
                       5   5   5   5   5   5
                       1   1   1   1   1   1
  6      1     6       0   0   0   0   0   0
                       6   3   6   6   6   6
                       9   5   9   9   9   9
                       4   2   4   4   4   4
  7      1     7       9   9   9   9   5   9   9
                       2   2   2   2   1   2   2
                       8   8   8   8   4   8   8
                       3   3   3   3   2   3   3
  8      1     2       0   0
                       5   5
                       0   0
                      10  10
  9      1     4       3   3   3   3
                       4   4   4   4
                       6   6   6   6
                       0   0   0   0
 10      1     8       9   9   9   9   9   5   9   9
                       0   0   0   0   0   0   0   0
                       8   8   8   8   8   4   8   8
                       0   0   0   0   0   0   0   0
 11      1     3      10  10  10
                       3   3   3
                       8   8   8
                       8   8   8
 12      1     3       9   5   9
                       9   5   9
                       7   4   7
                       0   0   0
 13      1     3       1   1   1
                       5   5   5
                       0   0   0
                       6   6   6
 14      1     4       0   0   0   0
                       7   7   7   7
                       2   2   2   2
                       7   7   7   7
 15      1     6       8   8   8   8   8   8
                       0   0   0   0   0   0
                       8   8   8   8   8   8
                       7   7   7   7   7   7
 16      1     8       4   4   4   4   2   4   4   4
                       7   7   7   7   4   7   7   7
                       6   6   6   6   3   6   6   6
                       1   1   1   1   1   1   1   1
 17      1     1       0
                       5
                       0
                       2
 18      1     6       5   5   5   5   5   3
                       5   5   5   5   5   3
                       4   4   4   4   4   2
                       0   0   0   0   0   0
 19      1     5       0   0   0   0   0
                       9   9   9   9   9
                       7   7   7   7   7
                       6   6   6   6   6
 20      1     4       4   2   4   4
                       0   0   0   0
                       5   3   5   5
                      10   5  10  10
 21      1     7       9   9   9   9   9   5   9
                      10  10  10  10  10   5  10
                       8   8   8   8   8   4   8
                       3   3   3   3   3   2   3
 22      1     4       6   6   3   3
                       5   5   3   3
                       6   6   3   3
                       8   8   4   4
 23      1     5       7   7   7   7   7
                       3   3   3   3   3
                       8   8   8   8   8
                       5   5   5   5   5
 24      1     3       4   4   4
                       0   0   0
                       0   0   0
                       0   0   0
 25      1     4       5   5   5   5
                       3   3   3   3
                       4   4   4   4
                       0   0   0   0
 26      1     3       9   9   9
                       0   0   0
                       8   8   8
                       9   9   9
 27      1     2       0   0
                       5  10
                       2   4
                       4   8
 28      1     2       0   0
                       7   7
                       0   0
                       0   0
 29      1     3       9   9   9
                       5   5   5
                       9   9   9
                       0   0   0
 30      1     9       0   0   0   0   0   0   0   0   0
                       3   3   3   3   3   3   3   3   3
                       8   8   8   8   8   8   8   8   8
                       3   3   3   3   3   3   3   3   3
 31      1     3       0   0   0
                       2   2   2
                       8   8   8
                       9   9   9
 32      1     1       0
                       2
                       9
                       0
 33      1     8       4   7   7   7   7   7   7   7
                       0   0   0   0   0   0   0   0
                       4   8   8   8   8   8   8   8
                       1   1   1   1   1   1   1   1
 34      1     1       7
                       5
                       1
                       9
 35      1     1       2
                       4
                       2
                       5
 36      1     2       0   0
                       6   6
                       6   6
                       7   7
 37      1     4      10  10  10  10
                       3   3   3   3
                       9   9   9   9
                       6   6   6   6
 38      1     9       0   0   0   0   0   0   0   0   0
                       0   0   0   0   0   0   0   0   0
                       2   2   2   2   2   2   2   2   2
                       8   8   8   8   8   8   8   8   8
 39      1     3       9   5   9
                       0   0   0
                       8   4   8
                       0   0   0
 40      1     1       6
                       4
                       2
                       2
 41      1     5       6   6   6   6   6
                       5   5   5   5   5
                       0   0   0   0   0
                       1   1   1   1   1
 42      1     1       1
                       0
                       3
                       1
 43      1     9       4   4   4   2   4   4   4   4   4
                       5   5   5   3   5   5   5   5   5
                       9   9   9   5   9   9   9   9   9
                       0   0   0   0   0   0   0   0   0
 44      1     1       2
                       0
                       0
                       3
 45      1     9       2   1   1   1   2   2   2   2   2
                       4   2   2   2   4   4   4   4   4
                       0   0   0   0   0   0   0   0   0
                       0   0   0   0   0   0   0   0   0
 46      1     5       7   7   7   7   7
                       4   4   4   4   4
                       4   4   4   4   4
                       7   7   7   7   7
 47      1     3       6   6   6
                       4   4   4
                       3   3   3
                      10  10  10
 48      1     6       0   0   0   0   0   0
                       2   2   2   2   2   2
                       0   0   0   0   0   0
                       0   0   0   0   0   0
 49      1     5       3   3   3   3   3
                       0   0   0   0   0
                       4   4   4   4   4
                       0   0   0   0   0
 50      1     4      10  10  10  10
                       9   9   9   9
                       0   0   0   0
                       7   7   7   7
 51      1     7       0   0   0   0   0   0   0
                       0   0   0   0   0   0   0
                      10  10  10  10  10  10  10
                      10  10  10  10  10  10  10
 52      1     2      10  10
                       3   3
                       1   1
                       6   6
 53      1     8       4   8   8   8   8   8   8   8
                       2   4   4   4   4   4   4   4
                       4   7   7   7   7   7   7   7
                       2   3   3   3   3   3   3   3
 54      1     8       4   7   7   7   7   7   7   7
                       5   9   9   9   9   9   9   9
                       5   9   9   9   9   9   9   9
                       0   0   0   0   0   0   0   0
 55      1     1       7
                      10
                       1
                       9
 56      1     3       6   6   6
                      10  10  10
                       1   1   1
                       0   0   0
 57      1     8       6   6   6   6   6   3   6   6
                       4   4   4   4   4   2   4   4
                       9   9   9   9   9   5   9   9
                       5   5   5   5   5   3   5   5
 58      1     8      10  10  10  10  10  10  10  10
                       1   1   1   1   1   1   1   1
                       0   0   0   0   0   0   0   0
                       2   2   2   2   2   2   2   2
 59      1    10       2   2   2   2   2   2   2   2   2   1
                       6   6   6   6   6   6   6   6   6   3
                       0   0   0   0   0   0   0   0   0   0
                       5   5   5   5   5   5   5   5   5   3
 60      1     4       6   6   6   6
                       4   4   4   4
                       0   0   0   0
                       8   8   8   8
 61      1     2       0   0
                       7   7
                       2   2
                       3   3
 62      1     4       2   2   4   4
                       1   1   2   2
                       2   2   4   4
                       4   4   7   7
 63      1     9       0   0   0   0   0   0   0   0   0
                       0   0   0   0   0   0   0   0   0
                       2   2   2   2   2   2   2   2   2
                       5   5   5   5   5   5   5   5   5
 64      1     7       1   1   1   1   1   1   1
                       9   9   9   9   9   9   9
                      10  10  10  10  10  10  10
                       9   9   9   9   9   9   9
 65      1     1       6
                       5
                       7
                       8
 66      1     1       0
                       5
                      10
                       8
 67      1     3       8   8   8
                      10  10  10
                       8   8   8
                       5   5   5
 68      1     3       8   8   8
                       3   3   3
                       2   2   2
                       9   9   9
 69      1    10      10   5  10  10  10  10  10  10  10  10
                      10   5  10  10  10  10  10  10  10  10
                       6   3   6   6   6   6   6   6   6   6
                       7   4   7   7   7   7   7   7   7   7
 70      1     2       4   7
                       2   3
                       3   6
                       1   2
 71      1     4       1   1   1   1
                      10  10   5  10
                       9   9   5   9
                       0   0   0   0
 72      1     5       5  10  10  10  10
                       5  10  10  10  10
                       0   0   0   0   0
                       1   1   1   1   1
 73      1     4       8   8   8   8
                       3   3   3   3
                       1   1   1   1
                       2   2   2   2
 74      1     4       0   0   0   0
                      10  10   5  10
                       9   9   5   9
                       0   0   0   0
 75      1     7       6   6   3   6   6   6   6
                       4   4   2   4   4   4   4
                       5   5   3   5   5   5   5
                       0   0   0   0   0   0   0
 76      1     5       6   6   6   6   6
                       0   0   0   0   0
                       6   6   6   6   6
                       7   7   7   7   7
 77      1     4       6   6   6   6
                      10  10  10  10
                       1   1   1   1
                       4   4   4   4
 78      1     9       2   2   2   2   2   1   2   2   2
                       4   4   4   4   4   2   4   4   4
                       0   0   0   0   0   0   0   0   0
                       3   3   3   3   3   2   3   3   3
 79      1     2       0   0
                       1   1
                       0   0
                       6   6
 80      1    10       1   1   1   1   1   1   1   1   1   1
                       5   5   5   5   3   5   5   5   5   5
                       0   0   0   0   0   0   0   0   0   0
                       7   7   7   7   4   7   7   7   7   7
 81      1    10       0   0   0   0   0   0   0   0   0   0
                       5   5   3   5   5   5   5   3   5   5
                       0   0   0   0   0   0   0   0   0   0
                       1   1   1   1   1   1   1   1   1   1
 82      1     7       6   6   6   6   6   3   6
                      10  10  10  10  10   5  10
                       0   0   0   0   0   0   0
                       0   0   0   0   0   0   0
 83      1     6       0   0   0   0   0   0
                       3   3   2   3   3   3
                       9   9   5   9   9   9
                       5   5   3   5   5   5
 84      1     5       7   7   7   4   4
                       0   0   0   0   0
                       7   7   7   4   4
                       4   4   4   2   2
 85      1     9       8   8   8   8   8   8   8   8   4
                       8   8   8   8   8   8   8   8   4
                       0   0   0   0   0   0   0   0   0
                       0   0   0   0   0   0   0   0   0
 86      1     7       2   2   2   2   2   2   2
                       1   1   1   1   1   1   1
                      10  10  10  10  10  10  10
                      10  10  10  10  10  10  10
 87      1     5       8   8   8   8   8
                       9   9   9   9   9
                       0   0   0   0   0
                       0   0   0   0   0
 88      1     4       2   2   2   2
                       2   2   2   2
                       7   7   7   7
                       0   0   0   0
 89      1     9       4   4   4   4   4   4   4   4   4
                       8   8   8   8   8   8   8   8   8
                       0   0   0   0   0   0   0   0   0
                       0   0   0   0   0   0   0   0   0
 90      1     9       9   9   9   9   9   9   9   9   5
                       3   3   3   3   3   3   3   3   2
                       2   2   2   2   2   2   2   2   1
                       0   0   0   0   0   0   0   0   0
 91      1     1       0
                       0
                       4
                       7
 92      1     6       8   8   8   8   8   8
                       0   0   0   0   0   0
                       8   8   8   8   8   8
                       3   3   3   3   3   3
 93      1    10       0   0   0   0   0   0   0   0   0   0
                       6   3   6   6   6   6   6   6   6   6
                       0   0   0   0   0   0   0   0   0   0
                      10   5  10  10  10  10  10  10  10  10
 94      1     4       4   8   8   4
                       5   9   9   5
                       0   0   0   0
                       0   0   0   0
 95      1     2       0   0
                       4   8
                       2   4
                       3   6
 96      1     2       4   4
                       1   1
                       0   0
                       8   8
 97      1     9       9   9   9   9   9   9   9   9   9
                       1   1   1   1   1   1   1   1   1
                      10  10  10  10  10  10  10  10  10
                       6   6   6   6   6   6   6   6   6
 98      1     1       9
                       0
                       0
                       3
 99      1     2       1   1
                       9   5
                       0   0
                       2   1
100      1     3       9   5   9
                       1   1   1
                       0   0   0
                       9   5   9
101      1     6       2   2   2   2   2   2
                       1   1   1   1   1   1
                       5   5   5   5   5   5
                       2   2   2   2   2   2
102      1     1      10
                       0
                       2
                       9
103      1     1       4
                       7
                       7
                       0
104      1     8       5   3   5   5   5   5   5   5
                       0   0   0   0   0   0   0   0
                       0   0   0   0   0   0   0   0
                       3   2   3   3   3   3   3   3
105      1     8      10  10  10  10  10  10  10  10
                       7   7   7   7   7   7   7   7
                       0   0   0   0   0   0   0   0
                       0   0   0   0   0   0   0   0
106      1     1       6
                       0
                       2
                       5
107      1     1       3
                       1
                       0
                       2
108      1     5      10  10  10  10  10
                       7   7   7   7   7
                       4   4   4   4   4
                      10  10  10  10  10
109      1     8       0   0   0   0   0   0   0   0
                       4   4   2   4   4   4   2   2
                       3   3   2   3   3   3   2   2
                       0   0   0   0   0   0   0   0
110      1     8       2   4   4   4   4   4   4   4
                       3   5   5   5   5   5   5   5
                       0   0   0   0   0   0   0   0
                       5  10  10  10  10  10  10  10
111      1     9       6   6   6   6   3   6   6   6   6
                       8   8   8   8   4   8   8   8   8
                       0   0   0   0   0   0   0   0   0
                       4   4   4   4   2   4   4   4   4
112      1     7       6   6   6   6   6   6   6
                      10  10  10  10  10  10  10
                      10  10  10  10  10  10  10
                       0   0   0   0   0   0   0
113      1     6       7   7   4   7   7   7
                       3   3   2   3   3   3
                       7   7   4   7   7   7
                       7   7   4   7   7   7
114      1     3       3   3   3
                       3   3   3
                       5   5   5
                       7   7   7
115      1     7       6   6   6   6   6   6   6
                       7   7   7   7   7   7   7
                       7   7   7   7   7   7   7
                       0   0   0   0   0   0   0
116      1     2       7   7
                       0   0
                       6   6
                       2   2
117      1     6       5   5   5   5   5   5
                       6   6   6   6   6   6
                       0   0   0   0   0   0
                       0   0   0   0   0   0
118      1     4       2   3   3   3
                       5   9   9   9
                       0   0   0   0
                       3   5   5   5
119      1     6       0   0   0   0   0   0
                       9   9   9   9   9   9
                       5   5   5   5   5   5
                      10  10  10  10  10  10
120      1     8       0   0   0   0   0   0   0   0
                       2   1   2   2   2   2   2   2
                       3   2   3   3   3   3   3   3
                      10   5  10  10  10  10  10  10
121      1     4       2   2   2   2
                       6   6   6   6
                       6   6   6   6
                       6   6   6   6
122      1     0    
************************************************************************
RESOURCEAVAILABILITIES:
  R 1  R 2  R 3  R 4

  52  52  52  52  52  52  52  52  52  52  52  52  52  26  26  52  52  52  52  52  52  26  52  52  52  52  52  52  52  52  52  52  52  52  52  52  52  52  52  52  52  52  52  52  52  26  52  52  52  52  52  52  26  52  26  52  52  52  26  52  52  52  52  52  52  52  52  52  52  52  52  52  52  52  52  52  26  52  52  52  52  52  52  52  52  52  52  52  52  52  52  52  52  52  52  26  52  52  52  52  52  52  52  26  26  26  52  52  52  52  52  52  26  26  52  52  52  52  52  26  52  52  26  52  52  52  52  52  52  52  26  52  52  52  52  52  52  52  52  52  52  26  52  52  52  52  52  52  52  52  52  52  52  52  52  52  52  52  26  52  52  52  52  52  52  52  52  52  52  26  52  52  52  52  52  26  52  52  52  52  52  52  52  52  52  52  52  52  52  52  26  26  52  52  52  52  52  52  52  52  52  52  52  52  52  52  52  52  52  52  52  52  52  52  52  52  52  52  52  26  52  52  52  52  52  52  52  52  52  52  52  52  52  52  26  52  52  52  52  52  52  52  52  52  52  52  52  52  52  52  52  26  52  52  52  52  52  52  52  52  26  52  52  52  52  52  52  52  52  52  52  52  52  52  26  52  52  52  52  52  52  52  52  52  52  52  52  52  52  52  52  26  52  52  52  52  52  52  52  52  52  26  52  52  52  26  52  52  52  52  52  52  52  52  52  26  52  52  52  52  52  52  52  52  52  52  52  52  52  52  52  52  52  52  52  52  52  52  52  52  52  52  52  52  52  52  52  52  52  52  52  52  26  52  52  52  52  52  26  52  52  52  52  52  52  52  52  52  52  52  52  52  52  52  52  52  52  52  52  52  26  52  52  52  52  52  52  52  52  52  52  52  52  52  52  52  26  52  52  52  52  52  52  26  52  52  52  52  52  52  52  52  52  26  52  26  52  52  52  52  26  52  52  52  52  52  52  52  26  52  52  52  52  52  52  52  52  52  52  52  52  52  52  52  52  52  52  52  52  52  52  52  52  52  26  52  52  52  52  52  52  52  52  52  52  52  52  52  52  52  52  52  52  52  52  52  52  52  52  52  52  26  52  52  52  52  52  52  52  52  52  52  52  52  52  26  52  52  52  52  52  52  52  52  26  52  52  26  52  52  52  52  52  52  26  52  52  52  52  52  52  26  52  26  52  26  52  52  52  52  52  52  52  52  52  52  52  52  52  52  52  52  52  52  26  52  26  52  52  26  52  52  52  52  52  52  52  52  52  52  52  52  52  52  52  52  52  52  52  52  52  52  52  52  52  52  52  52  52  52  52  52  52  52  52

  55  55  55  55  55  55  55  55  55  55  55  55  55  28  28  55  55  55  55  55  55  28  55  55  55  55  55  55  55  55  55  55  55  55  55  55  55  55  55  55  55  55  55  55  55  28  55  55  55  55  55  55  28  55  28  55  55  55  28  55  55  55  55  55  55  55  55  55  55  55  55  55  55  55  55  55  28  55  55  55  55  55  55  55  55  55  55  55  55  55  55  55  55  55  55  28  55  55  55  55  55  55  55  28  28  28  55  55  55  55  55  55  28  28  55  55  55  55  55  28  55  55  28  55  55  55  55  55  55  55  28  55  55  55  55  55  55  55  55  55  55  28  55  55  55  55  55  55  55  55  55  55  55  55  55  55  55  55  28  55  55  55  55  55  55  55  55  55  55  28  55  55  55  55  55  28  55  55  55  55  55  55  55  55  55  55  55  55  55  55  28  28  55  55  55  55  55  55  55  55  55  55  55  55  55  55  55  55  55  55  55  55  55  55  55  55  55  55  55  28  55  55  55  55  55  55  55  55  55  55  55  55  55  55  28  55  55  55  55  55  55  55  55  55  55  55  55  55  55  55  55  28  55  55  55  55  55  55  55  55  28  55  55  55  55  55  55  55  55  55  55  55  55  55  28  55  55  55  55  55  55  55  55  55  55  55  55  55  55  55  55  28  55  55  55  55  55  55  55  55  55  28  55  55  55  28  55  55  55  55  55  55  55  55  55  28  55  55  55  55  55  55  55  55  55  55  55  55  55  55  55  55  55  55  55  55  55  55  55  55  55  55  55  55  55  55  55  55  55  55  55  55  28  55  55  55  55  55  28  55  55  55  55  55  55  55  55  55  55  55  55  55  55  55  55  55  55  55  55  55  28  55  55  55  55  55  55  55  55  55  55  55  55  55  55  55  28  55  55  55  55  55  55  28  55  55  55  55  55  55  55  55  55  28  55  28  55  55  55  55  28  55  55  55  55  55  55  55  28  55  55  55  55  55  55  55  55  55  55  55  55  55  55  55  55  55  55  55  55  55  55  55  55  55  28  55  55  55  55  55  55  55  55  55  55  55  55  55  55  55  55  55  55  55  55  55  55  55  55  55  55  28  55  55  55  55  55  55  55  55  55  55  55  55  55  28  55  55  55  55  55  55  55  55  28  55  55  28  55  55  55  55  55  55  28  55  55  55  55  55  55  28  55  28  55  28  55  55  55  55  55  55  55  55  55  55  55  55  55  55  55  55  55  55  28  55  28  55  55  28  55  55  55  55  55  55  55  55  55  55  55  55  55  55  55  55  55  55  55  55  55  55  55  55  55  55  55  55  55  55  55  55  55  55  55

  52  52  52  52  52  52  52  52  52  52  52  52  52  26  26  52  52  52  52  52  52  26  52  52  52  52  52  52  52  52  52  52  52  52  52  52  52  52  52  52  52  52  52  52  52  26  52  52  52  52  52  52  26  52  26  52  52  52  26  52  52  52  52  52  52  52  52  52  52  52  52  52  52  52  52  52  26  52  52  52  52  52  52  52  52  52  52  52  52  52  52  52  52  52  52  26  52  52  52  52  52  52  52  26  26  26  52  52  52  52  52  52  26  26  52  52  52  52  52  26  52  52  26  52  52  52  52  52  52  52  26  52  52  52  52  52  52  52  52  52  52  26  52  52  52  52  52  52  52  52  52  52  52  52  52  52  52  52  26  52  52  52  52  52  52  52  52  52  52  26  52  52  52  52  52  26  52  52  52  52  52  52  52  52  52  52  52  52  52  52  26  26  52  52  52  52  52  52  52  52  52  52  52  52  52  52  52  52  52  52  52  52  52  52  52  52  52  52  52  26  52  52  52  52  52  52  52  52  52  52  52  52  52  52  26  52  52  52  52  52  52  52  52  52  52  52  52  52  52  52  52  26  52  52  52  52  52  52  52  52  26  52  52  52  52  52  52  52  52  52  52  52  52  52  26  52  52  52  52  52  52  52  52  52  52  52  52  52  52  52  52  26  52  52  52  52  52  52  52  52  52  26  52  52  52  26  52  52  52  52  52  52  52  52  52  26  52  52  52  52  52  52  52  52  52  52  52  52  52  52  52  52  52  52  52  52  52  52  52  52  52  52  52  52  52  52  52  52  52  52  52  52  26  52  52  52  52  52  26  52  52  52  52  52  52  52  52  52  52  52  52  52  52  52  52  52  52  52  52  52  26  52  52  52  52  52  52  52  52  52  52  52  52  52  52  52  26  52  52  52  52  52  52  26  52  52  52  52  52  52  52  52  52  26  52  26  52  52  52  52  26  52  52  52  52  52  52  52  26  52  52  52  52  52  52  52  52  52  52  52  52  52  52  52  52  52  52  52  52  52  52  52  52  52  26  52  52  52  52  52  52  52  52  52  52  52  52  52  52  52  52  52  52  52  52  52  52  52  52  52  52  26  52  52  52  52  52  52  52  52  52  52  52  52  52  26  52  52  52  52  52  52  52  52  26  52  52  26  52  52  52  52  52  52  26  52  52  52  52  52  52  26  52  26  52  26  52  52  52  52  52  52  52  52  52  52  52  52  52  52  52  52  52  52  26  52  26  52  52  26  52  52  52  52  52  52  52  52  52  52  52  52  52  52  52  52  52  52  52  52  52  52  52  52  52  52  52  52  52  52  52  52  52  52  52

  56  56  56  56  56  56  56  56  56  56  56  56  56  28  28  56  56  56  56  56  56  28  56  56  56  56  56  56  56  56  56  56  56  56  56  56  56  56  56  56  56  56  56  56  56  28  56  56  56  56  56  56  28  56  28  56  56  56  28  56  56  56  56  56  56  56  56  56  56  56  56  56  56  56  56  56  28  56  56  56  56  56  56  56  56  56  56  56  56  56  56  56  56  56  56  28  56  56  56  56  56  56  56  28  28  28  56  56  56  56  56  56  28  28  56  56  56  56  56  28  56  56  28  56  56  56  56  56  56  56  28  56  56  56  56  56  56  56  56  56  56  28  56  56  56  56  56  56  56  56  56  56  56  56  56  56  56  56  28  56  56  56  56  56  56  56  56  56  56  28  56  56  56  56  56  28  56  56  56  56  56  56  56  56  56  56  56  56  56  56  28  28  56  56  56  56  56  56  56  56  56  56  56  56  56  56  56  56  56  56  56  56  56  56  56  56  56  56  56  28  56  56  56  56  56  56  56  56  56  56  56  56  56  56  28  56  56  56  56  56  56  56  56  56  56  56  56  56  56  56  56  28  56  56  56  56  56  56  56  56  28  56  56  56  56  56  56  56  56  56  56  56  56  56  28  56  56  56  56  56  56  56  56  56  56  56  56  56  56  56  56  28  56  56  56  56  56  56  56  56  56  28  56  56  56  28  56  56  56  56  56  56  56  56  56  28  56  56  56  56  56  56  56  56  56  56  56  56  56  56  56  56  56  56  56  56  56  56  56  56  56  56  56  56  56  56  56  56  56  56  56  56  28  56  56  56  56  56  28  56  56  56  56  56  56  56  56  56  56  56  56  56  56  56  56  56  56  56  56  56  28  56  56  56  56  56  56  56  56  56  56  56  56  56  56  56  28  56  56  56  56  56  56  28  56  56  56  56  56  56  56  56  56  28  56  28  56  56  56  56  28  56  56  56  56  56  56  56  28  56  56  56  56  56  56  56  56  56  56  56  56  56  56  56  56  56  56  56  56  56  56  56  56  56  28  56  56  56  56  56  56  56  56  56  56  56  56  56  56  56  56  56  56  56  56  56  56  56  56  56  56  28  56  56  56  56  56  56  56  56  56  56  56  56  56  28  56  56  56  56  56  56  56  56  28  56  56  28  56  56  56  56  56  56  28  56  56  56  56  56  56  28  56  28  56  28  56  56  56  56  56  56  56  56  56  56  56  56  56  56  56  56  56  56  28  56  28  56  56  28  56  56  56  56  56  56  56  56  56  56  56  56  56  56  56  56  56  56  56  56  56  56  56  56  56  56  56  56  56  56  56  56  56  56  56

************************************************************************
